12
1 2 16
1 3 1
1 4 4
1 5 4
1 6 8
1 7 10
1 8 19
1 9 5
1 10 7
1 11 13
1 12 2
2 3 15
2 4 18
2 5 6
2 6 14
2 7 9
2 8 10
2 9 17
2 10 6
2 11 16
2 12 16
3 4 18
3 5 15
3 6 8
3 7 1
3 8 2
3 9 10
3 10 1
3 11 11
3 12 4
4 5 1
4 6 5
4 7 6
4 8 7
4 9 9
4 10 18
4 11 16
4 12 5
5 6 10
5 7 4
5 8 7
5 9 12
5 10 15
5 11 19
5 12 1
6 7 7
6 8 5
6 9 16
6 10 4
6 11 13
6 12 5
7 8 18
7 9 6
7 10 10
7 11 4
7 12 1
8 9 3
8 10 11
8 11 14
8 12 17
9 10 4
9 11 19
9 12 15
10 11 12
10 12 3
11 12 12
